0 7897217
2 7896356
3 7873112
4 7755280
5 7540439
7 7539711
11 7519867
13 7515810
14 7515733
24 7506329
26 7447933
29 7437437
33 7425061
34 7419862
40 7407019
42 7401861
49 7401231
56 7391019
60 7388970
61 7379977
65 7376857
66 7376630
67 7373907
73 7371159
76 7345604
81 7334073
84 7326832
92 7315198
100 7281927
107 7271655
110 7270843
114 7260923
127 7260748
130 7248973
133 7246841
139 7239483
144 7239470
145 7238686
182 7238355
183 7238177
184 7219381
222 7217555
224 7213106
232 7210139
233 7202252
239 7199171
253 7198513
255 7196277
256 7182768
262 7181936
265 7181328
267 7161984
284 7160290
298 7157807
313 7154531
325 7151950
354 7151889
413 7151537
443 7150832
463 7139860
477 7139769
497 7124156
517 7121088
522 7120349
528 7116631
609 7112679
613 7110716
641 7104567
788 7104213
855 7104141
899 7104047
969 7103877
995 7103700
1029 7099265
